p cnf 73 273
-4 2 0
-4 -3 0
-2 3 4 0
5 1 0
5 4 0
-1 -4 -5 0
-7 6 0
-7 2 0
-6 -2 7 0
7 -8 -9 0
-7 8 -9 0
7 8 9 0
-7 -8 9 0
-11 -9 0
-11 -10 0
9 10 11 0
-12 -5 0
-12 11 0
5 -11 12 0
-13 -1 -14 0
13 1 -14 0
-13 1 14 0
13 -1 14 0
-15 12 0
-15 14 0
-12 -14 15 0
-16 -17 0
16 -17 0
18 17 0
18 -2 0
-17 2 -18 0
-19 6 0
-19 9 0
-6 -9 19 0
7 19 -20 0
-7 -19 -20 0
7 -19 20 0
-7 19 20 0
-21 -20 0
-21 16 0
20 -16 21 0
-22 -18 0
-22 21 0
18 -21 22 0
-23 15 0
-23 -22 0
-15 22 23 0
25 -2 0
25 -24 0
2 24 -25 0
26 -1 0
26 -16 0
1 16 -26 0
-8 -26 -27 0
8 26 -27 0
-8 26 27 0
8 -26 27 0
27 3 -28 0
-27 -3 -28 0
27 -3 28 0
-27 3 28 0
25 28 -29 0
-25 -28 -29 0
25 -28 29 0
-25 28 29 0
1 10 -30 0
-1 -10 -30 0
1 -10 30 0
-1 10 30 0
-31 -24 0
-31 30 0
24 -30 31 0
32 29 0
32 -31 0
-29 31 -32 0
-33 24 0
-33 -32 0
-24 32 33 0
-34 23 0
-34 -33 0
-23 33 34 0
-3 8 -35 0
3 -8 -35 0
-3 -8 35 0
3 8 35 0
-36 -35 0
-36 -35 0
35 36 0
-31 36 -37 0
31 -36 -37 0
-31 -36 37 0
31 36 37 0
38 37 0
38 6 0
-37 -6 -38 0
-31 4 -40 0
31 -4 -40 0
-31 -4 40 0
31 4 40 0
41 -39 0
41 -40 0
39 40 -41 0
-42 38 0
-42 41 0
-38 -41 42 0
43 34 0
43 42 0
-34 -42 -43 0
-44 7 0
-44 9 0
-7 -9 44 0
-45 44 0
-45 -20 0
-44 20 45 0
46 6 0
46 -7 0
-6 7 -46 0
-26 39 -47 0
26 -39 -47 0
-26 -39 47 0
26 39 47 0
48 -46 0
48 47 0
46 -47 -48 0
-49 39 0
-49 16 0
-39 -16 49 0
50 -48 0
50 49 0
48 -49 -50 0
45 50 -51 0
-45 -50 -51 0
45 -50 51 0
-45 50 51 0
52 7 0
52 29 0
-7 -29 -52 0
51 52 -53 0
-51 -52 -53 0
51 -52 53 0
-51 52 53 0
-54 -6 0
-54 40 0
6 -40 54 0
-16 31 -55 0
16 -31 -55 0
-16 -31 55 0
16 31 55 0
54 -55 -56 0
-54 55 -56 0
54 55 56 0
-54 -55 56 0
-57 53 0
-57 56 0
-53 -56 57 0
-43 57 -58 0
43 -57 -58 0
-43 -57 58 0
43 57 58 0
40 -8 -59 0
-40 8 -59 0
40 8 59 0
-40 -8 59 0
60 -37 0
60 31 0
37 -31 -60 0
20 47 -61 0
-20 -47 -61 0
20 -47 61 0
-20 47 61 0
-62 17 0
-62 -4 0
-17 4 62 0
63 -40 0
63 -39 0
40 39 -63 0
-64 -20 0
-64 36 0
20 -36 64 0
-65 64 0
-65 -6 0
-64 6 65 0
66 -63 0
66 65 0
63 -65 -66 0
-67 47 0
-67 2 0
-47 -2 67 0
-66 67 -68 0
66 -67 -68 0
-66 -67 68 0
66 67 68 0
62 68 -69 0
-62 -68 -69 0
62 -68 69 0
-62 68 69 0
-70 -61 0
-70 69 0
61 -69 70 0
-71 -60 0
-71 70 0
60 -70 71 0
72 -59 0
72 71 0
59 -71 -72 0
-58 -72 -73 0
58 72 -73 0
-58 72 73 0
58 -72 73 0
16 51 -57 -71 47 0
39 -62 0
-20 21 44 38 -29 0
-13 -15 22 0
18 46 47 63 0
-7 54 65 0
-20 -14 -54 -26 56 0
-70 -19 -72 0
-50 61 -62 0
-59 -36 0
38 51 10 -28 0
-64 -59 -52 -27 30 38 0
-19 -56 -32 -27 40 48 0
66 -52 26 0
-14 25 9 40 0
-22 43 -26 0
-62 -29 -67 0
-1 58 -51 -55 -49 0
34 43 -40 70 0
-36 -34 -48 -67 0
60 -15 0
-40 -19 5 30 -37 0
-71 -17 0
43 -13 0
-6 22 64 36 0
14 11 -2 -38 47 0
57 56 25 -13 -36 35 0
19 58 5 16 0
41 9 -30 27 0
-30 6 1 34 9 -18 0
-2 32 53 -37 -1 0
-8 60 -14 -10 0
-59 -14 0
-21 54 0
-11 33 -64 0
-47 -41 0
-63 -34 0
60 -65 -71 -8 0
-53 21 0
-39 60 0
-23 -28 -43 -67 7 0
-23 -5 -38 -24 37 0
22 50 0
-31 3 0
63 -31 57 -50 0
51 41 59 61 0
44 -35 -14 -23 15 0
-35 18 70 0
43 25 -4 21 65 0
-16 -14 0
32 -6 -20 0
59 -61 -66 0
68 -46 45 0
25 -13 15 -55 -44 46 0
53 -47 -49 -35 31 0
41 14 31 0
24 -20 0
57 -12 37 21 -17 -48 0
70 -39 4 23 44 0
-10 -47 -39 0
-58 70 -39 24 20 0
-28 35 38 -54 0
-6 -57 -56 49 -10 0
73 0
